<?xml version="1.0" encoding="UTF-8"?><osil xmlns="os.optimizationservices.org"   xmlns:xsi="http://www.w3.org/2001/XMLSchema-instance" xsi:schemaLocation="os.optimizationservices.org http://www.optimizationservices.org/schemas/2.0/OSiL.xsd" ><instanceHeader><name>q_50_0_25_1</name></instanceHeader><instanceData><variables numberOfVariables="50"><var name="x1" ub="1"/><var name="x2" ub="1"/><var name="x3" ub="1"/><var name="x4" ub="1"/><var name="x5" ub="1"/><var name="x6" ub="1"/><var name="x7" ub="1"/><var name="x8" ub="1"/><var name="x9" ub="1"/><var name="x10" ub="1"/><var name="x11" ub="1"/><var name="x12" ub="1"/><var name="x13" ub="1"/><var name="x14" ub="1"/><var name="x15" ub="1"/><var name="x16" ub="1"/><var name="x17" ub="1"/><var name="x18" ub="1"/><var name="x19" ub="1"/><var name="x20" ub="1"/><var name="x21" ub="1"/><var name="x22" ub="1"/><var name="x23" ub="1"/><var name="x24" ub="1"/><var name="x25" ub="1"/><var name="x26" ub="1"/><var name="x27" ub="1"/><var name="x28" ub="1"/><var name="x29" ub="1"/><var name="x30" ub="1"/><var name="x31" ub="1"/><var name="x32" ub="1"/><var name="x33" ub="1"/><var name="x34" ub="1"/><var name="x35" ub="1"/><var name="x36" ub="1"/><var name="x37" ub="1"/><var name="x38" ub="1"/><var name="x39" ub="1"/><var name="x40" ub="1"/><var name="x41" ub="1"/><var name="x42" ub="1"/><var name="x43" ub="1"/><var name="x44" ub="1"/><var name="x45" ub="1"/><var name="x46" ub="1"/><var name="x47" ub="1"/><var name="x48" ub="1"/><var name="x49" ub="1"/><var name="x50" ub="1"/></variables><objectives numberOfObjectives="1"><obj maxOrMin="min" name="defObj_x51" numberOfObjCoef="50"><coef idx="0">.4382</coef><coef idx="1">-.7787</coef><coef idx="2">.9149</coef><coef idx="3">.2939</coef><coef idx="4">.1637</coef><coef idx="5">-.9742</coef><coef idx="6">-.4477</coef><coef idx="7">.6009</coef><coef idx="8">-.3442</coef><coef idx="9">.1588</coef><coef idx="10">-.9521</coef><coef idx="11">.3398</coef><coef idx="12">-.6371</coef><coef idx="13">-.4268</coef><coef idx="14">.3169</coef><coef idx="15">.1779</coef><coef idx="16">-.8726</coef><coef idx="17">-.7344</coef><coef idx="18">.4833</coef><coef idx="19">7.e-4</coef><coef idx="20">-.9371</coef><coef idx="21">.9815</coef><coef idx="22">-.9932</coef><coef idx="23">.3986</coef><coef idx="24">.5181</coef><coef idx="25">-.4916</coef><coef idx="26">-.3371</coef><coef idx="27">.1457</coef><coef idx="28">.9832</coef><coef idx="29">-2.07e-2</coef><coef idx="30">.1223</coef><coef idx="31">.2128</coef><coef idx="32">-.8286</coef><coef idx="33">-.4837</coef><coef idx="34">-5.92e-2</coef><coef idx="35">.6266</coef><coef idx="36">.4492</coef><coef idx="37">.9861</coef><coef idx="38">-.8687</coef><coef idx="39">-.8504</coef><coef idx="40">.6624</coef><coef idx="41">-.1745</coef><coef idx="42">.3241</coef><coef idx="43">-.4919</coef><coef idx="44">-3.39e-2</coef><coef idx="45">.2248</coef><coef idx="46">.366</coef><coef idx="47">-.1987</coef><coef idx="48">-.5784</coef><coef idx="49">.8198</coef></obj></objectives><quadraticCoefficients  numberOfQuadraticTerms="318" ><qTerm  idx="-1"  idxOne="0"  idxTwo="4"  coef="-.6117"/><qTerm  idx="-1"  idxOne="0"  idxTwo="6"  coef="-1.8129"/><qTerm  idx="-1"  idxOne="0"  idxTwo="10"  coef="1.2871"/><qTerm  idx="-1"  idxOne="0"  idxTwo="11"  coef="-.3436"/><qTerm  idx="-1"  idxOne="0"  idxTwo="15"  coef="1.894"/><qTerm  idx="-1"  idxOne="0"  idxTwo="20"  coef="1.2153"/><qTerm  idx="-1"  idxOne="0"  idxTwo="48"  coef="-2.31e-2"/><qTerm  idx="-1"  idxOne="1"  idxTwo="8"  coef="-1.239"/><qTerm  idx="-1"  idxOne="1"  idxTwo="10"  coef="-.6628"/><qTerm  idx="-1"  idxOne="1"  idxTwo="12"  coef="1.5617"/><qTerm  idx="-1"  idxOne="1"  idxTwo="14"  coef="-1.2112"/><qTerm  idx="-1"  idxOne="1"  idxTwo="18"  coef="1.1717"/><qTerm  idx="-1"  idxOne="1"  idxTwo="27"  coef="-1.405"/><qTerm  idx="-1"  idxOne="1"  idxTwo="28"  coef="-.3188"/><qTerm  idx="-1"  idxOne="1"  idxTwo="30"  coef="-.2223"/><qTerm  idx="-1"  idxOne="1"  idxTwo="32"  coef=".6034"/><qTerm  idx="-1"  idxOne="1"  idxTwo="35"  coef=".3394"/><qTerm  idx="-1"  idxOne="1"  idxTwo="36"  coef="6.81e-2"/><qTerm  idx="-1"  idxOne="1"  idxTwo="43"  coef="-.857"/><qTerm  idx="-1"  idxOne="1"  idxTwo="49"  coef="1.9208"/><qTerm  idx="-1"  idxOne="2"  idxTwo="6"  coef="-1.1361"/><qTerm  idx="-1"  idxOne="2"  idxTwo="7"  coef="1.2276"/><qTerm  idx="-1"  idxOne="2"  idxTwo="12"  coef=".5738"/><qTerm  idx="-1"  idxOne="2"  idxTwo="21"  coef="-.3037"/><qTerm  idx="-1"  idxOne="2"  idxTwo="31"  coef=".6528"/><qTerm  idx="-1"  idxOne="2"  idxTwo="36"  coef="-1.9374"/><qTerm  idx="-1"  idxOne="2"  idxTwo="38"  coef=".7231"/><qTerm  idx="-1"  idxOne="2"  idxTwo="42"  coef="1.4557"/><qTerm  idx="-1"  idxOne="2"  idxTwo="46"  coef="1.5883"/><qTerm  idx="-1"  idxOne="3"  idxTwo="8"  coef=".7534"/><qTerm  idx="-1"  idxOne="3"  idxTwo="16"  coef="-2.95e-2"/><qTerm  idx="-1"  idxOne="3"  idxTwo="17"  coef="-1.6289"/><qTerm  idx="-1"  idxOne="3"  idxTwo="18"  coef="-.2766"/><qTerm  idx="-1"  idxOne="3"  idxTwo="21"  coef="-1.4507"/><qTerm  idx="-1"  idxOne="3"  idxTwo="24"  coef=".3908"/><qTerm  idx="-1"  idxOne="3"  idxTwo="28"  coef="1.4854"/><qTerm  idx="-1"  idxOne="3"  idxTwo="30"  coef="-.2435"/><qTerm  idx="-1"  idxOne="3"  idxTwo="32"  coef="-1.3141"/><qTerm  idx="-1"  idxOne="3"  idxTwo="34"  coef="1.6769"/><qTerm  idx="-1"  idxOne="3"  idxTwo="44"  coef="7.9e-2"/><qTerm  idx="-1"  idxOne="3"  idxTwo="46"  coef="-4.2e-3"/><qTerm  idx="-1"  idxOne="4"  idxTwo="5"  coef=".1971"/><qTerm  idx="-1"  idxOne="4"  idxTwo="11"  coef="-.7027"/><qTerm  idx="-1"  idxOne="4"  idxTwo="12"  coef="1.6421"/><qTerm  idx="-1"  idxOne="4"  idxTwo="14"  coef="1.8998"/><qTerm  idx="-1"  idxOne="4"  idxTwo="19"  coef="-1.5941"/><qTerm  idx="-1"  idxOne="4"  idxTwo="31"  coef=".1484"/><qTerm  idx="-1"  idxOne="4"  idxTwo="35"  coef=".3698"/><qTerm  idx="-1"  idxOne="4"  idxTwo="36"  coef="1.4515"/><qTerm  idx="-1"  idxOne="4"  idxTwo="41"  coef="1.4859"/><qTerm  idx="-1"  idxOne="4"  idxTwo="48"  coef="-1.3956"/><qTerm  idx="-1"  idxOne="4"  idxTwo="49"  coef="-.9965"/><qTerm  idx="-1"  idxOne="5"  idxTwo="7"  coef="-.1803"/><qTerm  idx="-1"  idxOne="5"  idxTwo="16"  coef="1.0218"/><qTerm  idx="-1"  idxOne="5"  idxTwo="29"  coef=".1968"/><qTerm  idx="-1"  idxOne="5"  idxTwo="30"  coef="-.3748"/><qTerm  idx="-1"  idxOne="5"  idxTwo="34"  coef=".105"/><qTerm  idx="-1"  idxOne="5"  idxTwo="37"  coef="-1.8808"/><qTerm  idx="-1"  idxOne="5"  idxTwo="38"  coef="-1.5817"/><qTerm  idx="-1"  idxOne="6"  idxTwo="12"  coef="1.7716"/><qTerm  idx="-1"  idxOne="6"  idxTwo="14"  coef="1.6939"/><qTerm  idx="-1"  idxOne="6"  idxTwo="15"  coef=".4529"/><qTerm  idx="-1"  idxOne="6"  idxTwo="16"  coef=".3873"/><qTerm  idx="-1"  idxOne="6"  idxTwo="17"  coef=".4575"/><qTerm  idx="-1"  idxOne="6"  idxTwo="18"  coef="1.3578"/><qTerm  idx="-1"  idxOne="6"  idxTwo="20"  coef="-1.4488"/><qTerm  idx="-1"  idxOne="6"  idxTwo="27"  coef="-.1971"/><qTerm  idx="-1"  idxOne="6"  idxTwo="28"  coef="1.1935"/><qTerm  idx="-1"  idxOne="6"  idxTwo="32"  coef="-.4586"/><qTerm  idx="-1"  idxOne="6"  idxTwo="36"  coef="1.3612"/><qTerm  idx="-1"  idxOne="6"  idxTwo="40"  coef=".1675"/><qTerm  idx="-1"  idxOne="6"  idxTwo="48"  coef="-.4672"/><qTerm  idx="-1"  idxOne="6"  idxTwo="49"  coef="-8.e-2"/><qTerm  idx="-1"  idxOne="7"  idxTwo="7"  coef=".6499"/><qTerm  idx="-1"  idxOne="7"  idxTwo="9"  coef="1.24"/><qTerm  idx="-1"  idxOne="7"  idxTwo="11"  coef=".7898"/><qTerm  idx="-1"  idxOne="7"  idxTwo="12"  coef=".872"/><qTerm  idx="-1"  idxOne="7"  idxTwo="15"  coef="-.6297"/><qTerm  idx="-1"  idxOne="7"  idxTwo="18"  coef="-1.5485"/><qTerm  idx="-1"  idxOne="7"  idxTwo="26"  coef="-1.4687"/><qTerm  idx="-1"  idxOne="7"  idxTwo="28"  coef="-1.2268"/><qTerm  idx="-1"  idxOne="7"  idxTwo="29"  coef="7.99e-2"/><qTerm  idx="-1"  idxOne="7"  idxTwo="32"  coef=".4493"/><qTerm  idx="-1"  idxOne="7"  idxTwo="33"  coef="1.0785"/><qTerm  idx="-1"  idxOne="7"  idxTwo="36"  coef="-.6658"/><qTerm  idx="-1"  idxOne="7"  idxTwo="37"  coef="1.172"/><qTerm  idx="-1"  idxOne="7"  idxTwo="38"  coef="-1.5952"/><qTerm  idx="-1"  idxOne="7"  idxTwo="43"  coef="-1.8278"/><qTerm  idx="-1"  idxOne="8"  idxTwo="22"  coef="-.5919"/><qTerm  idx="-1"  idxOne="8"  idxTwo="23"  coef="-1.3479"/><qTerm  idx="-1"  idxOne="8"  idxTwo="26"  coef=".8933"/><qTerm  idx="-1"  idxOne="8"  idxTwo="31"  coef="-.3833"/><qTerm  idx="-1"  idxOne="8"  idxTwo="33"  coef="-.9077"/><qTerm  idx="-1"  idxOne="8"  idxTwo="36"  coef=".1315"/><qTerm  idx="-1"  idxOne="8"  idxTwo="41"  coef="1.4148"/><qTerm  idx="-1"  idxOne="8"  idxTwo="42"  coef="1.8882"/><qTerm  idx="-1"  idxOne="8"  idxTwo="46"  coef="-1.4581"/><qTerm  idx="-1"  idxOne="9"  idxTwo="10"  coef="-1.005"/><qTerm  idx="-1"  idxOne="9"  idxTwo="19"  coef="-1.2991"/><qTerm  idx="-1"  idxOne="9"  idxTwo="21"  coef=".7626"/><qTerm  idx="-1"  idxOne="9"  idxTwo="27"  coef="-.2924"/><qTerm  idx="-1"  idxOne="9"  idxTwo="29"  coef="1.8441"/><qTerm  idx="-1"  idxOne="9"  idxTwo="34"  coef=".4504"/><qTerm  idx="-1"  idxOne="9"  idxTwo="37"  coef="-1.7424"/><qTerm  idx="-1"  idxOne="9"  idxTwo="40"  coef="-1.9104"/><qTerm  idx="-1"  idxOne="9"  idxTwo="48"  coef="-1.9527"/><qTerm  idx="-1"  idxOne="10"  idxTwo="11"  coef="1.8905"/><qTerm  idx="-1"  idxOne="10"  idxTwo="13"  coef="-.9716"/><qTerm  idx="-1"  idxOne="10"  idxTwo="14"  coef="1.3723"/><qTerm  idx="-1"  idxOne="10"  idxTwo="18"  coef="-.3616"/><qTerm  idx="-1"  idxOne="10"  idxTwo="19"  coef="-1.0124"/><qTerm  idx="-1"  idxOne="10"  idxTwo="20"  coef="1.8742"/><qTerm  idx="-1"  idxOne="10"  idxTwo="21"  coef="-1.6131"/><qTerm  idx="-1"  idxOne="10"  idxTwo="31"  coef=".5187"/><qTerm  idx="-1"  idxOne="10"  idxTwo="40"  coef="-.5456"/><qTerm  idx="-1"  idxOne="10"  idxTwo="42"  coef="-1.23"/><qTerm  idx="-1"  idxOne="10"  idxTwo="44"  coef="1.1997"/><qTerm  idx="-1"  idxOne="10"  idxTwo="45"  coef="-.1889"/><qTerm  idx="-1"  idxOne="10"  idxTwo="47"  coef=".6959"/><qTerm  idx="-1"  idxOne="11"  idxTwo="16"  coef=".7204"/><qTerm  idx="-1"  idxOne="11"  idxTwo="17"  coef="-1.4674"/><qTerm  idx="-1"  idxOne="11"  idxTwo="20"  coef="1.3204"/><qTerm  idx="-1"  idxOne="11"  idxTwo="25"  coef="-.134"/><qTerm  idx="-1"  idxOne="11"  idxTwo="26"  coef="-1.4502"/><qTerm  idx="-1"  idxOne="11"  idxTwo="31"  coef="-6.47e-2"/><qTerm  idx="-1"  idxOne="11"  idxTwo="34"  coef="1.4198"/><qTerm  idx="-1"  idxOne="11"  idxTwo="36"  coef="1.1877"/><qTerm  idx="-1"  idxOne="11"  idxTwo="37"  coef="1.6292"/><qTerm  idx="-1"  idxOne="11"  idxTwo="38"  coef="-.6987"/><qTerm  idx="-1"  idxOne="11"  idxTwo="41"  coef="-.9675"/><qTerm  idx="-1"  idxOne="11"  idxTwo="43"  coef="1.8073"/><qTerm  idx="-1"  idxOne="11"  idxTwo="46"  coef="1.3911"/><qTerm  idx="-1"  idxOne="11"  idxTwo="47"  coef=".318"/><qTerm  idx="-1"  idxOne="12"  idxTwo="15"  coef="-.9725"/><qTerm  idx="-1"  idxOne="12"  idxTwo="19"  coef="-.5346"/><qTerm  idx="-1"  idxOne="12"  idxTwo="20"  coef="1.8264"/><qTerm  idx="-1"  idxOne="12"  idxTwo="22"  coef="-1.1665"/><qTerm  idx="-1"  idxOne="12"  idxTwo="27"  coef=".8555"/><qTerm  idx="-1"  idxOne="12"  idxTwo="32"  coef="-.7025"/><qTerm  idx="-1"  idxOne="12"  idxTwo="33"  coef="-1.2543"/><qTerm  idx="-1"  idxOne="12"  idxTwo="35"  coef="-1.6837"/><qTerm  idx="-1"  idxOne="12"  idxTwo="39"  coef="-.4359"/><qTerm  idx="-1"  idxOne="12"  idxTwo="43"  coef="-1.5344"/><qTerm  idx="-1"  idxOne="12"  idxTwo="44"  coef="-1.4171"/><qTerm  idx="-1"  idxOne="12"  idxTwo="47"  coef="-5.88e-2"/><qTerm  idx="-1"  idxOne="12"  idxTwo="48"  coef="-4.35e-2"/><qTerm  idx="-1"  idxOne="13"  idxTwo="16"  coef=".1791"/><qTerm  idx="-1"  idxOne="13"  idxTwo="18"  coef=".2473"/><qTerm  idx="-1"  idxOne="13"  idxTwo="22"  coef="4.37e-2"/><qTerm  idx="-1"  idxOne="13"  idxTwo="23"  coef="-.578"/><qTerm  idx="-1"  idxOne="13"  idxTwo="33"  coef="1.5941"/><qTerm  idx="-1"  idxOne="13"  idxTwo="34"  coef="1.7508"/><qTerm  idx="-1"  idxOne="13"  idxTwo="44"  coef="7.66e-2"/><qTerm  idx="-1"  idxOne="14"  idxTwo="14"  coef="1.5132"/><qTerm  idx="-1"  idxOne="14"  idxTwo="18"  coef="-1.3831"/><qTerm  idx="-1"  idxOne="14"  idxTwo="19"  coef=".3039"/><qTerm  idx="-1"  idxOne="14"  idxTwo="22"  coef=".8603"/><qTerm  idx="-1"  idxOne="14"  idxTwo="24"  coef="-1.0578"/><qTerm  idx="-1"  idxOne="14"  idxTwo="26"  coef="-1.0687"/><qTerm  idx="-1"  idxOne="14"  idxTwo="31"  coef="-1.301"/><qTerm  idx="-1"  idxOne="14"  idxTwo="40"  coef="-1.3579"/><qTerm  idx="-1"  idxOne="14"  idxTwo="41"  coef="-2.23e-2"/><qTerm  idx="-1"  idxOne="14"  idxTwo="49"  coef="1.9137"/><qTerm  idx="-1"  idxOne="15"  idxTwo="23"  coef="-.9245"/><qTerm  idx="-1"  idxOne="15"  idxTwo="26"  coef="2.32e-2"/><qTerm  idx="-1"  idxOne="15"  idxTwo="27"  coef="-1.3823"/><qTerm  idx="-1"  idxOne="15"  idxTwo="33"  coef="1.3203"/><qTerm  idx="-1"  idxOne="15"  idxTwo="34"  coef="-1.1791"/><qTerm  idx="-1"  idxOne="15"  idxTwo="35"  coef="-1.8998"/><qTerm  idx="-1"  idxOne="15"  idxTwo="36"  coef=".6879"/><qTerm  idx="-1"  idxOne="15"  idxTwo="40"  coef=".2949"/><qTerm  idx="-1"  idxOne="15"  idxTwo="42"  coef="-1.9877"/><qTerm  idx="-1"  idxOne="15"  idxTwo="43"  coef=".6786"/><qTerm  idx="-1"  idxOne="15"  idxTwo="47"  coef=".319"/><qTerm  idx="-1"  idxOne="16"  idxTwo="18"  coef=".8599"/><qTerm  idx="-1"  idxOne="16"  idxTwo="30"  coef="1.911"/><qTerm  idx="-1"  idxOne="16"  idxTwo="32"  coef="1.4228"/><qTerm  idx="-1"  idxOne="16"  idxTwo="37"  coef="-.914"/><qTerm  idx="-1"  idxOne="16"  idxTwo="45"  coef="-.8027"/><qTerm  idx="-1"  idxOne="17"  idxTwo="18"  coef=".9817"/><qTerm  idx="-1"  idxOne="17"  idxTwo="20"  coef=".9415"/><qTerm  idx="-1"  idxOne="17"  idxTwo="24"  coef="-.8711"/><qTerm  idx="-1"  idxOne="17"  idxTwo="33"  coef=".4742"/><qTerm  idx="-1"  idxOne="17"  idxTwo="34"  coef=".5675"/><qTerm  idx="-1"  idxOne="17"  idxTwo="38"  coef="-7.5e-3"/><qTerm  idx="-1"  idxOne="17"  idxTwo="40"  coef="-.7661"/><qTerm  idx="-1"  idxOne="17"  idxTwo="45"  coef="-.6437"/><qTerm  idx="-1"  idxOne="17"  idxTwo="47"  coef="-.6932"/><qTerm  idx="-1"  idxOne="18"  idxTwo="20"  coef="-.1562"/><qTerm  idx="-1"  idxOne="18"  idxTwo="24"  coef="-.314"/><qTerm  idx="-1"  idxOne="18"  idxTwo="26"  coef="-1.9945"/><qTerm  idx="-1"  idxOne="18"  idxTwo="30"  coef="-.7747"/><qTerm  idx="-1"  idxOne="18"  idxTwo="35"  coef="1.6395"/><qTerm  idx="-1"  idxOne="18"  idxTwo="37"  coef="-7.75e-2"/><qTerm  idx="-1"  idxOne="18"  idxTwo="48"  coef=".5336"/><qTerm  idx="-1"  idxOne="19"  idxTwo="27"  coef="1.9972"/><qTerm  idx="-1"  idxOne="19"  idxTwo="32"  coef=".4797"/><qTerm  idx="-1"  idxOne="19"  idxTwo="34"  coef=".1989"/><qTerm  idx="-1"  idxOne="19"  idxTwo="35"  coef="-.4081"/><qTerm  idx="-1"  idxOne="19"  idxTwo="36"  coef="1.3157"/><qTerm  idx="-1"  idxOne="19"  idxTwo="37"  coef="-1.6489"/><qTerm  idx="-1"  idxOne="19"  idxTwo="44"  coef="-.2181"/><qTerm  idx="-1"  idxOne="19"  idxTwo="48"  coef=".7704"/><qTerm  idx="-1"  idxOne="20"  idxTwo="24"  coef=".4532"/><qTerm  idx="-1"  idxOne="20"  idxTwo="36"  coef="1.7145"/><qTerm  idx="-1"  idxOne="20"  idxTwo="40"  coef="-1.0402"/><qTerm  idx="-1"  idxOne="20"  idxTwo="41"  coef="-1.1874"/><qTerm  idx="-1"  idxOne="20"  idxTwo="49"  coef="1.899"/><qTerm  idx="-1"  idxOne="21"  idxTwo="22"  coef="-.7625"/><qTerm  idx="-1"  idxOne="21"  idxTwo="29"  coef="-.8107"/><qTerm  idx="-1"  idxOne="21"  idxTwo="30"  coef=".2479"/><qTerm  idx="-1"  idxOne="21"  idxTwo="42"  coef=".9914"/><qTerm  idx="-1"  idxOne="21"  idxTwo="48"  coef=".8192"/><qTerm  idx="-1"  idxOne="22"  idxTwo="22"  coef="-.419"/><qTerm  idx="-1"  idxOne="22"  idxTwo="28"  coef=".5928"/><qTerm  idx="-1"  idxOne="22"  idxTwo="34"  coef="-1.2741"/><qTerm  idx="-1"  idxOne="22"  idxTwo="35"  coef=".538"/><qTerm  idx="-1"  idxOne="22"  idxTwo="36"  coef="-.4729"/><qTerm  idx="-1"  idxOne="22"  idxTwo="38"  coef="-.1751"/><qTerm  idx="-1"  idxOne="22"  idxTwo="40"  coef="1.6354"/><qTerm  idx="-1"  idxOne="22"  idxTwo="45"  coef=".669"/><qTerm  idx="-1"  idxOne="22"  idxTwo="46"  coef="-1.3346"/><qTerm  idx="-1"  idxOne="22"  idxTwo="47"  coef="1.9445"/><qTerm  idx="-1"  idxOne="23"  idxTwo="23"  coef="1.0388"/><qTerm  idx="-1"  idxOne="23"  idxTwo="31"  coef="1.4796"/><qTerm  idx="-1"  idxOne="23"  idxTwo="38"  coef="1.6277"/><qTerm  idx="-1"  idxOne="23"  idxTwo="41"  coef="-1.9406"/><qTerm  idx="-1"  idxOne="23"  idxTwo="46"  coef="-1.5456"/><qTerm  idx="-1"  idxOne="24"  idxTwo="27"  coef=".147"/><qTerm  idx="-1"  idxOne="24"  idxTwo="34"  coef="1.2432"/><qTerm  idx="-1"  idxOne="24"  idxTwo="38"  coef="-1.1806"/><qTerm  idx="-1"  idxOne="24"  idxTwo="46"  coef="1.9221"/><qTerm  idx="-1"  idxOne="25"  idxTwo="33"  coef="-.9537"/><qTerm  idx="-1"  idxOne="25"  idxTwo="36"  coef="-.8793"/><qTerm  idx="-1"  idxOne="25"  idxTwo="47"  coef=".2009"/><qTerm  idx="-1"  idxOne="26"  idxTwo="30"  coef=".7765"/><qTerm  idx="-1"  idxOne="26"  idxTwo="33"  coef=".9229"/><qTerm  idx="-1"  idxOne="26"  idxTwo="34"  coef="1.0102"/><qTerm  idx="-1"  idxOne="26"  idxTwo="35"  coef="-1.2622"/><qTerm  idx="-1"  idxOne="26"  idxTwo="40"  coef="1.9522"/><qTerm  idx="-1"  idxOne="26"  idxTwo="41"  coef=".4863"/><qTerm  idx="-1"  idxOne="26"  idxTwo="46"  coef="-1.9586"/><qTerm  idx="-1"  idxOne="27"  idxTwo="27"  coef="-.6888"/><qTerm  idx="-1"  idxOne="27"  idxTwo="32"  coef=".216"/><qTerm  idx="-1"  idxOne="27"  idxTwo="34"  coef="-.2337"/><qTerm  idx="-1"  idxOne="27"  idxTwo="37"  coef=".7265"/><qTerm  idx="-1"  idxOne="27"  idxTwo="40"  coef=".6032"/><qTerm  idx="-1"  idxOne="27"  idxTwo="41"  coef="-.491"/><qTerm  idx="-1"  idxOne="27"  idxTwo="43"  coef="-.4675"/><qTerm  idx="-1"  idxOne="27"  idxTwo="46"  coef="-.1379"/><qTerm  idx="-1"  idxOne="27"  idxTwo="47"  coef="1.7179"/><qTerm  idx="-1"  idxOne="27"  idxTwo="48"  coef="-1.4819"/><qTerm  idx="-1"  idxOne="27"  idxTwo="49"  coef="1.9616"/><qTerm  idx="-1"  idxOne="28"  idxTwo="38"  coef="1.1012"/><qTerm  idx="-1"  idxOne="28"  idxTwo="49"  coef="1.8637"/><qTerm  idx="-1"  idxOne="29"  idxTwo="30"  coef="1.849"/><qTerm  idx="-1"  idxOne="29"  idxTwo="33"  coef="-.1725"/><qTerm  idx="-1"  idxOne="29"  idxTwo="43"  coef="-1.8456"/><qTerm  idx="-1"  idxOne="30"  idxTwo="32"  coef="-.4074"/><qTerm  idx="-1"  idxOne="30"  idxTwo="35"  coef="1.5893"/><qTerm  idx="-1"  idxOne="30"  idxTwo="37"  coef="1.6402"/><qTerm  idx="-1"  idxOne="30"  idxTwo="38"  coef="1.8143"/><qTerm  idx="-1"  idxOne="30"  idxTwo="41"  coef=".8236"/><qTerm  idx="-1"  idxOne="30"  idxTwo="46"  coef="1.9687"/><qTerm  idx="-1"  idxOne="30"  idxTwo="47"  coef="1.961"/><qTerm  idx="-1"  idxOne="30"  idxTwo="48"  coef=".2368"/><qTerm  idx="-1"  idxOne="31"  idxTwo="37"  coef="1.4957"/><qTerm  idx="-1"  idxOne="31"  idxTwo="42"  coef="-1.0288"/><qTerm  idx="-1"  idxOne="31"  idxTwo="43"  coef=".2093"/><qTerm  idx="-1"  idxOne="32"  idxTwo="33"  coef="1.5172"/><qTerm  idx="-1"  idxOne="32"  idxTwo="34"  coef="1.7565"/><qTerm  idx="-1"  idxOne="32"  idxTwo="38"  coef="1.5161"/><qTerm  idx="-1"  idxOne="32"  idxTwo="43"  coef="1.3229"/><qTerm  idx="-1"  idxOne="32"  idxTwo="44"  coef="1.181"/><qTerm  idx="-1"  idxOne="32"  idxTwo="47"  coef=".4398"/><qTerm  idx="-1"  idxOne="32"  idxTwo="49"  coef="-1.2811"/><qTerm  idx="-1"  idxOne="33"  idxTwo="35"  coef="-1.6398"/><qTerm  idx="-1"  idxOne="33"  idxTwo="41"  coef=".3278"/><qTerm  idx="-1"  idxOne="33"  idxTwo="43"  coef="-.5502"/><qTerm  idx="-1"  idxOne="33"  idxTwo="44"  coef="1.0147"/><qTerm  idx="-1"  idxOne="34"  idxTwo="36"  coef=".1374"/><qTerm  idx="-1"  idxOne="34"  idxTwo="41"  coef="1.8725"/><qTerm  idx="-1"  idxOne="34"  idxTwo="45"  coef="1.027"/><qTerm  idx="-1"  idxOne="34"  idxTwo="47"  coef="-1.4744"/><qTerm  idx="-1"  idxOne="35"  idxTwo="36"  coef="-.5732"/><qTerm  idx="-1"  idxOne="35"  idxTwo="39"  coef=".8943"/><qTerm  idx="-1"  idxOne="35"  idxTwo="40"  coef=".2344"/><qTerm  idx="-1"  idxOne="35"  idxTwo="41"  coef="1.1073"/><qTerm  idx="-1"  idxOne="36"  idxTwo="37"  coef="1.7874"/><qTerm  idx="-1"  idxOne="36"  idxTwo="42"  coef=".5493"/><qTerm  idx="-1"  idxOne="36"  idxTwo="43"  coef="-.7681"/><qTerm  idx="-1"  idxOne="36"  idxTwo="49"  coef="1.0419"/><qTerm  idx="-1"  idxOne="37"  idxTwo="41"  coef="1.3728"/><qTerm  idx="-1"  idxOne="37"  idxTwo="44"  coef=".1569"/><qTerm  idx="-1"  idxOne="37"  idxTwo="45"  coef="-.2931"/><qTerm  idx="-1"  idxOne="37"  idxTwo="47"  coef="-1.6269"/><qTerm  idx="-1"  idxOne="37"  idxTwo="49"  coef="-1.8691"/><qTerm  idx="-1"  idxOne="38"  idxTwo="38"  coef="1.0136"/><qTerm  idx="-1"  idxOne="38"  idxTwo="39"  coef="-1.209"/><qTerm  idx="-1"  idxOne="38"  idxTwo="43"  coef="-1.6031"/><qTerm  idx="-1"  idxOne="38"  idxTwo="44"  coef="1.778"/><qTerm  idx="-1"  idxOne="38"  idxTwo="46"  coef=".3742"/><qTerm  idx="-1"  idxOne="38"  idxTwo="48"  coef="-.9092"/><qTerm  idx="-1"  idxOne="39"  idxTwo="41"  coef=".8361"/><qTerm  idx="-1"  idxOne="39"  idxTwo="48"  coef="-.6083"/><qTerm  idx="-1"  idxOne="40"  idxTwo="41"  coef="-.3728"/><qTerm  idx="-1"  idxOne="40"  idxTwo="46"  coef=".9245"/><qTerm  idx="-1"  idxOne="40"  idxTwo="48"  coef="-3.55e-2"/><qTerm  idx="-1"  idxOne="41"  idxTwo="47"  coef="-.4891"/><qTerm  idx="-1"  idxOne="41"  idxTwo="49"  coef="-1.3008"/><qTerm  idx="-1"  idxOne="42"  idxTwo="42"  coef="4.83e-2"/><qTerm  idx="-1"  idxOne="43"  idxTwo="49"  coef="-1.0249"/><qTerm  idx="-1"  idxOne="44"  idxTwo="46"  coef="-1.5423"/><qTerm  idx="-1"  idxOne="44"  idxTwo="48"  coef=".6317"/><qTerm  idx="-1"  idxOne="46"  idxTwo="48"  coef="-1.0629"/><qTerm  idx="-1"  idxOne="47"  idxTwo="47"  coef="1.0129"/><qTerm  idx="-1"  idxOne="47"  idxTwo="48"  coef="-.5011"/><qTerm  idx="-1"  idxOne="48"  idxTwo="49"  coef="-.9728"/></quadraticCoefficients></instanceData></osil>
